(declare-fun bvlambda_3_ ()Bool         )
(declare-fun a39 () (Array (_ BitVec 1) (_ BitVec 13)))
(assert
(let (($e7 (_ bv14 13)))
(let (($e8 (_ bv0 13)))
(let (($e69 (store a39 true        $e7)))
(let (($e72 (store $e69 bvlambda_3_        $e8 )))
(let (($e73 (select $e72 true       )))
                 (bvult $e8  $e73)
                                                                                                                                                                        ))  )                                                 ))      )
